knapPI_14_20_1000_1
n 20
c 994
z 1794
time 0.00
1,294,94,0
2,706,506,0
3,616,416,1
4,1192,992,0
5,849,649,0
6,437,237,1
7,657,457,0
8,1015,815,0
9,646,446,0
10,622,422,0
11,991,791,0
12,559,359,0
13,867,667,0
14,798,598,0
15,207,7,1
16,744,544,0
17,534,334,1
18,966,766,0
19,1194,994,0
20,1093,893,0
